Total weight: 904.6099382953876
Route 1: 0 27 31 10 62 88 7 82 18 83 60 6 89 52 69 1 50 26 40 2 57 42 98 85 61 84 5 93 59 97 95 94 13 58 22 74 72 73 21 54 80 68 12 0 
Route 2: 0 96 99 92 37 44 38 14 43 15 41 23 67 39 77 9 20 11 19 46 8 45 17 86 16 91 100 87 75 56 4 25 55 24 29 33 81 51 30 70 0 
Route 3: 0 53 28 76 3 79 78 34 35 71 65 66 32 90 63 64 49 36 47 48 0 
